Water Network: ../data/d10_HG_SP_5_5.dat
*******************************************************************************

-------------------------------- Solving with IPOPT --------------------------
min_demand: 0
max_demand: 122
max_flow: 987.87416
eps: 5.314067450889515e-12 

Ipopt solver outputs: 

Ipopt 3.14.13: outlev = 0
expect_infeasible_problem = yes
tol = 1e-9
bound_relax_factor=0
bound_push = 0.01
bound_frac = 0.01
nlp_scaling_method = none


******************************************************************************
This program contains Ipopt, a library for large-scale nonlinear optimization.
 Ipopt is released as open source code under the Eclipse Public License (EPL).
         For more information visit https://github.com/coin-or/Ipopt
******************************************************************************

 
Ipopt 3.14.13: Optimal Solution Found

suffix ipopt_zU_out OUT;
suffix ipopt_zL_out OUT;
total_cost: 9697350.322430747 

*******************************************************************************

*******************************************************************************

Constraints violation:


Sum of constraints violation: 3.8832517343309715e-12
*******************************************************************************

*******************************************************************************

Constraint 2 violations:


Sum of violation of original con2: 1.5987211554602254e-14
Sum of violation of approx con2: 1.4210854715202004e-14
*******************************************************************************

Absolute and relative violations between original and approximation constraint 2:


Con2 sum of absolute violation: 1.3806600281279457e-07
Con2 sum of relative violation: 0.118708859874778
*******************************************************************************

Total cost using ipopt: 9697350.322430747
IPOPT solve time: 8.32 seconds
*******************************************************************************


-------------------------------- Solving with scip --------------------------
min_demand: 0.0
max_demand: 0.122
max_flow: 0.98787416
eps: 5.314067450889515e-12 

SCIP version 8.0.3 [precision: 8 byte] [memory: block] [mode: optimized] [LP solver: Soplex 6.0.3] [GitHash: 62fab8a2e3]
Copyright (C) 2002-2022 Konrad-Zuse-Zentrum fuer Informationstechnik Berlin (ZIB)

External libraries: 
  Soplex 6.0.3         Linear Programming Solver developed at Zuse Institute Berlin (soplex.zib.de) [GitHash: f900e3d0]
  CppAD 20180000.0     Algorithmic Differentiation of C++ algorithms developed by B. Bell (github.com/coin-or/CppAD)
  ZLIB 1.2.11          General purpose compression library by J. Gailly and M. Adler (zlib.net)
  GMP 6.2.1            GNU Multiple Precision Arithmetic Library developed by T. Granlund (gmplib.org)
  ZIMPL 3.5.3          Zuse Institute Mathematical Programming Language developed by T. Koch (zimpl.zib.de)
  AMPL/MP 4e2d45c4     AMPL .nl file reader library (github.com/ampl/mp)
  PaPILO 2.1.2         parallel presolve for integer and linear optimization (github.com/scipopt/papilo) [GitHash: 2fe2543]
  bliss 0.77           Computing Graph Automorphism Groups by T. Junttila and P. Kaski (www.tcs.hut.fi/Software/bliss/)
  Ipopt 3.13.2         Interior Point Optimizer developed by A. Waechter et.al. (github.com/coin-or/Ipopt)

reading user parameter file <scip.set>
===========================

[paramset.c:2526] ERROR: expected "emphasis:" at beginning of line.
[paramset.c:2678] ERROR: input error in file <scip.set> line 7
limits/time = 3600
lp/initalgorithm = b

read problem </tmp/at287135.nl>
============

original problem has 2733 variables (0 bin, 0 int, 0 impl, 2733 cont) and 533 constraints

solve problem
=============

1/1 feasible solution given by solution candidate storage, new primal bound 9.697350e+06

presolving:
(round 1, fast)       79 del vars, 65 del conss, 0 add conss, 146 chg bounds, 0 chg sides, 0 chg coeffs, 0 upgd conss, 0 impls, 0 clqs
(round 2, fast)       79 del vars, 65 del conss, 0 add conss, 211 chg bounds, 14 chg sides, 0 chg coeffs, 0 upgd conss, 0 impls, 0 clqs
(round 3, fast)       121 del vars, 65 del conss, 0 add conss, 211 chg bounds, 14 chg sides, 0 chg coeffs, 0 upgd conss, 0 impls, 0 clqs
   (0.2s) symmetry computation started: requiring (bin +, int +, cont +), (fixed: bin -, int -, cont -)
   (0.2s) no symmetry present
presolving (4 rounds: 4 fast, 1 medium, 1 exhaustive):
 121 deleted vars, 65 deleted constraints, 0 added constraints, 211 tightened bounds, 0 added holes, 14 changed sides, 0 changed coefficients
 0 implications, 0 cliques
presolved problem has 2612 variables (0 bin, 0 int, 0 impl, 2612 cont) and 468 constraints
    289 constraints of type <linear>
    179 constraints of type <nonlinear>
Presolving Time: 0.15
transformed 1/1 original solutions to the transformed problem space

 time | node  | left  |LP iter|LP it/n|mem/heur|mdpt |vars |cons |rows |cuts |sepa|confs|strbr|  dualbound   | primalbound  |  gap   | compl. 
  0.4s|     1 |     0 |  4082 |     - |    36M |   0 |3995 | 468 |4310 |   0 |  0 |   0 |   0 | 1.622384e+06 | 9.697350e+06 | 497.72%| unknown
  7.2s|     1 |     0 |  4211 |     - |    39M |   0 |3995 | 468 |4441 | 133 |  1 |   0 |   0 | 1.622384e+06 | 9.697350e+06 | 497.72%| unknown
  7.2s|     1 |     0 |  4280 |     - |    39M |   0 |3995 | 468 |4525 | 217 |  2 |   0 |   0 | 1.622384e+06 | 9.697350e+06 | 497.72%| unknown
  7.3s|     1 |     0 |  4334 |     - |    39M |   0 |3995 | 468 |4599 | 291 |  3 |   0 |   0 | 1.622384e+06 | 9.697350e+06 | 497.72%| unknown
  7.3s|     1 |     0 |  4388 |     - |    39M |   0 |3995 | 468 |4675 | 367 |  4 |   0 |   0 | 1.622384e+06 | 9.697350e+06 | 497.72%| unknown
  7.3s|     1 |     0 |  4451 |     - |    39M |   0 |3995 | 468 |4751 | 443 |  5 |   0 |   0 | 1.622384e+06 | 9.697350e+06 | 497.72%| unknown
  7.3s|     1 |     0 |  4517 |     - |    39M |   0 |3995 | 468 |4824 | 516 |  6 |   0 |   0 | 1.622384e+06 | 9.697350e+06 | 497.72%| unknown
  7.3s|     1 |     0 |  4572 |     - |    39M |   0 |3995 | 468 |4891 | 583 |  7 |   0 |   0 | 1.622384e+06 | 9.697350e+06 | 497.72%| unknown
  7.3s|     1 |     0 |  4625 |     - |    39M |   0 |3995 | 468 |4951 | 643 |  8 |   0 |   0 | 1.622384e+06 | 9.697350e+06 | 497.72%| unknown
  7.4s|     1 |     0 |  4668 |     - |    39M |   0 |3995 | 468 |4988 | 680 |  9 |   0 |   0 | 1.622384e+06 | 9.697350e+06 | 497.72%| unknown
  7.4s|     1 |     0 |  4700 |     - |    39M |   0 |3995 | 468 |5021 | 713 | 10 |   0 |   0 | 1.622384e+06 | 9.697350e+06 | 497.72%| unknown
  7.4s|     1 |     0 |  4730 |     - |    39M |   0 |3995 | 468 |1724 | 744 | 11 |   0 |   0 | 1.622384e+06 | 9.697350e+06 | 497.72%| unknown
 11.0s|     1 |     0 |  6333 |     - |    40M |   0 |3995 | 468 |1724 | 744 | 11 |   0 |   0 | 1.622384e+06 | 9.697350e+06 | 497.72%| unknown
 11.1s|     1 |     0 |  6732 |     - |    40M |   0 |3995 | 468 |1960 | 994 | 12 |   0 |   0 | 1.622384e+06 | 9.697350e+06 | 497.72%| unknown
 11.1s|     1 |     0 |  6956 |     - |    40M |   0 |3995 | 468 |2075 |1124 | 13 |   0 |   0 | 1.622384e+06 | 9.697350e+06 | 497.72%| unknown
 time | node  | left  |LP iter|LP it/n|mem/heur|mdpt |vars |cons |rows |cuts |sepa|confs|strbr|  dualbound   | primalbound  |  gap   | compl. 
 11.1s|     1 |     0 |  7029 |     - |    40M |   0 |3995 | 468 |2135 |1191 | 14 |   0 |   0 | 1.622384e+06 | 9.697350e+06 | 497.72%| unknown
 11.1s|     1 |     0 |  7068 |     - |    40M |   0 |3995 | 468 |2165 |1222 | 15 |   0 |   0 | 1.622384e+06 | 9.697350e+06 | 497.72%| unknown
 11.1s|     1 |     0 |  7097 |     - |    40M |   0 |3995 | 468 |2194 |1251 | 16 |   0 |   0 | 1.622384e+06 | 9.697350e+06 | 497.72%| unknown
 11.1s|     1 |     0 |  7125 |     - |    40M |   0 |3995 | 468 |2225 |1283 | 17 |   0 |   0 | 1.622384e+06 | 9.697350e+06 | 497.72%| unknown
 11.1s|     1 |     0 |  7152 |     - |    40M |   0 |3995 | 468 |2260 |1318 | 18 |   0 |   0 | 1.622384e+06 | 9.697350e+06 | 497.72%| unknown
 11.1s|     1 |     0 |  7176 |     - |    40M |   0 |3995 | 468 |2293 |1351 | 19 |   0 |   0 | 1.622384e+06 | 9.697350e+06 | 497.72%| unknown
 11.1s|     1 |     0 |  7210 |     - |    40M |   0 |3995 | 468 |1366 |1385 | 20 |   0 |   0 | 1.622384e+06 | 9.697350e+06 | 497.72%| unknown
 11.1s|     1 |     0 |  7244 |     - |    40M |   0 |3995 | 468 |1398 |1418 | 21 |   0 |   0 | 1.622384e+06 | 9.697350e+06 | 497.72%| unknown
 11.1s|     1 |     0 |  7273 |     - |    40M |   0 |3995 | 468 |1428 |1448 | 22 |   0 |   0 | 1.622384e+06 | 9.697350e+06 | 497.72%| unknown
 11.3s|     1 |     0 |  7945 |     - |    40M |   0 |3995 | 468 |1659 |1681 | 22 |   0 |   0 | 1.622384e+06 | 9.697350e+06 | 497.72%| unknown
 11.3s|     1 |     0 |  8175 |     - |    40M |   0 |3995 | 468 |1766 |1791 | 23 |   0 |   0 | 1.622384e+06 | 9.697350e+06 | 497.72%| unknown
 13.3s|     1 |     2 | 11727 |     - |    40M |   0 |3995 | 468 |1766 |1791 | 24 |   0 |   0 | 1.622384e+06 | 9.697350e+06 | 497.72%| unknown
 56.7s|   100 |    91 | 97639 | 923.7 |    68M |  94 |3995 | 470 |  37k|  43k|  9 |   2 |   0 | 1.622384e+06 | 9.697350e+06 | 497.72%| unknown
 88.9s|   200 |   185 |216665 |1057.7 |    77M |  99 |3995 | 471 |6220 |  98k| 14 |   3 |   0 | 1.622384e+06 | 9.697350e+06 | 497.72%| unknown
  114s|   300 |   283 |282985 | 925.7 |    83M |  99 |3995 | 471 |7030 | 144k|  5 |   3 |   0 | 1.622384e+06 | 9.697350e+06 | 497.72%| unknown
 time | node  | left  |LP iter|LP it/n|mem/heur|mdpt |vars |cons |rows |cuts |sepa|confs|strbr|  dualbound   | primalbound  |  gap   | compl. 
  152s|   400 |   363 |455595 |1126.3 |    88M | 130 |3995 | 473 |  15k| 188k|  0 |   5 |   0 | 1.622384e+06 | 9.697350e+06 | 497.72%| unknown
  190s|   500 |   445 |699049 |1388.5 |    93M | 206 |3995 | 474 |7382 | 215k| 15 |   6 |   0 | 1.622384e+06 | 9.697350e+06 | 497.72%| unknown
  215s|   600 |   545 |780602 |1292.8 |   103M | 206 |3995 | 474 |  16k| 258k| 14 |   6 |   0 | 1.622384e+06 | 9.697350e+06 | 497.72%| unknown
  276s|   700 |   621 |909295 |1292.0 |   123M | 206 |3995 | 474 |   0 | 293k|  0 |   6 |   0 | 1.622384e+06 | 9.697350e+06 | 497.72%| unknown
  301s|   800 |   715 |977258 |1215.4 |   138M | 206 |3995 | 475 |  26k| 325k|  2 |   7 |   0 | 1.622384e+06 | 9.697350e+06 | 497.72%| unknown
  318s|   900 |   799 |  1016k|1123.8 |   143M | 206 |3995 | 475 |1865 | 334k|  0 |   7 |   0 | 1.622384e+06 | 9.697350e+06 | 497.72%| unknown
  343s|  1000 |   897 |  1067k|1062.4 |   155M | 206 |3995 | 475 |  24k| 364k| 15 |   7 |   0 | 1.622384e+06 | 9.697350e+06 | 497.72%| unknown
  364s|  1100 |   965 |  1103k| 998.5 |   160M | 206 |3995 | 477 |5526 | 376k| 16 |   9 |   0 | 1.622384e+06 | 9.697350e+06 | 497.72%| unknown
  395s|  1200 |  1063 |  1187k| 985.3 |   169M | 206 |3995 | 478 |  18k| 424k|  2 |  10 |   0 | 1.622384e+06 | 9.697350e+06 | 497.72%| unknown
  414s|  1300 |  1133 |  1221k| 935.9 |   173M | 206 |3995 | 481 |  15k| 443k| 16 |  13 |   0 | 1.622384e+06 | 9.697350e+06 | 497.72%| unknown
  477s|  1400 |  1229 |  1360k| 968.3 |   191M | 206 |3995 | 481 |  11k| 491k| 13 |  13 |   0 | 1.622384e+06 | 9.697350e+06 | 497.72%| unknown
  519s|  1500 |  1323 |  1474k| 979.3 |   209M | 206 |3995 | 483 |  15k| 550k| 15 |  15 |   0 | 1.622384e+06 | 9.697350e+06 | 497.72%| unknown
  552s|  1600 |  1413 |  1557k| 970.1 |   222M | 206 |3995 | 484 |  18k| 588k| 14 |  16 |   0 | 1.622384e+06 | 9.697350e+06 | 497.72%| unknown
  578s|  1700 |  1501 |  1639k| 961.1 |   233M | 206 |3995 | 484 |  18k| 611k|  3 |  16 |   0 | 1.622384e+06 | 9.697350e+06 | 497.72%| unknown
  607s|  1800 |  1595 |  1727k| 957.1 |   243M | 206 |3995 | 485 |  18k| 651k|  3 |  18 |   0 | 1.622384e+06 | 9.697350e+06 | 497.72%| unknown
 time | node  | left  |LP iter|LP it/n|mem/heur|mdpt |vars |cons |rows |cuts |sepa|confs|strbr|  dualbound   | primalbound  |  gap   | compl. 
  635s|  1900 |  1673 |  1796k| 942.8 |   252M | 206 |3995 | 485 |  12k| 675k|  3 |  18 |   0 | 1.622384e+06 | 9.697350e+06 | 497.72%| unknown
  658s|  2000 |  1765 |  1929k| 962.3 |   255M | 206 |3995 | 485 |6473 | 688k|  2 |  18 |   0 | 1.622384e+06 | 9.697350e+06 | 497.72%| unknown
  680s|  2100 |  1845 |  1979k| 940.3 |   259M | 206 |3995 | 483 |7866 | 722k|  3 |  18 |   0 | 1.622384e+06 | 9.697350e+06 | 497.72%| unknown
  707s|  2200 |  1933 |  2076k| 941.5 |   269M | 206 |3995 | 483 |  16k| 759k| 12 |  18 |   0 | 1.622384e+06 | 9.697350e+06 | 497.72%| unknown
  737s|  2300 |  2013 |  2202k| 955.2 |   273M | 206 |3995 | 483 |5726 | 789k| 14 |  18 |   0 | 1.622384e+06 | 9.697350e+06 | 497.72%| unknown
  754s|  2400 |  2097 |  2236k| 929.6 |   276M | 206 |3995 | 483 |  12k| 812k|  0 |  19 |   0 | 1.622384e+06 | 9.697350e+06 | 497.72%| unknown
  789s|  2500 |  2185 |  2368k| 945.3 |   287M | 206 |3995 | 483 |8974 | 853k|  2 |  19 |   0 | 1.622384e+06 | 9.697350e+06 | 497.72%| unknown
(node 2523) numerical troubles in LP 33325 -- unresolved
  824s|  2600 |  2259 |  2431k| 933.2 |   292M | 206 |3995 | 485 |  16k| 873k|  1 |  21 |   0 | 1.622384e+06 | 9.697350e+06 | 497.72%| unknown
  870s|  2700 |  2341 |  2509k| 927.6 |   300M | 206 |3995 | 486 |  15k| 904k|  1 |  23 |   0 | 1.622384e+06 | 9.697350e+06 | 497.72%| unknown
  902s|  2800 |  2395 |  2558k| 911.7 |   305M | 206 |3995 | 486 |   0 | 918k|  0 |  23 |   0 | 1.622384e+06 | 9.697350e+06 | 497.72%| unknown
  904s|  2900 |  2439 |  2558k| 880.4 |   305M | 223 |3995 | 486 |  21k| 918k|  0 |  23 |   0 | 1.622384e+06 | 9.697350e+06 | 497.72%| unknown
  937s|  3000 |  2511 |  2607k| 867.3 |   311M | 234 |3995 | 486 |   0 | 943k|  0 |  24 |   0 | 1.622384e+06 | 9.697350e+06 | 497.72%| unknown
 1025s|  3100 |  2577 |  2739k| 882.0 |   323M | 234 |3995 | 490 |7446 | 969k| 14 |  28 |   0 | 1.622384e+06 | 9.697350e+06 | 497.72%| unknown
 1084s|  3200 |  2657 |  2915k| 909.4 |   330M | 234 |3995 | 489 |8431 | 995k| 15 |  28 |   0 | 1.622384e+06 | 9.697350e+06 | 497.72%| unknown
 1124s|  3300 |  2743 |  2984k| 902.9 |   333M | 234 |3995 | 490 |6525 |1024k| 17 |  29 |   0 | 1.622384e+06 | 9.697350e+06 | 497.72%| unknown
 time | node  | left  |LP iter|LP it/n|mem/heur|mdpt |vars |cons |rows |cuts |sepa|confs|strbr|  dualbound   | primalbound  |  gap   | compl. 
 1153s|  3400 |  2817 |  3021k| 887.2 |   339M | 234 |3995 | 490 |  16k|1040k|  4 |  30 |   0 | 1.622384e+06 | 9.697350e+06 | 497.72%| unknown
 1189s|  3500 |  2899 |  3055k| 871.4 |   341M | 234 |3995 | 492 |  13k|1062k| 13 |  33 |   0 | 1.622384e+06 | 9.697350e+06 | 497.72%| unknown
 1236s|  3600 |  2987 |  3108k| 861.9 |   349M | 234 |3995 | 492 |  15k|1082k| 12 |  34 |   0 | 1.622384e+06 | 9.697350e+06 | 497.72%| unknown
 1307s|  3700 |  3075 |  3232k| 872.3 |   359M | 234 |3995 | 493 |  15k|1106k| 12 |  35 |   0 | 1.622384e+06 | 9.697350e+06 | 497.72%| unknown
 1355s|  3800 |  3147 |  3286k| 863.5 |   365M | 234 |3995 | 498 |  23k|1129k|  0 |  40 |   0 | 1.622384e+06 | 9.697350e+06 | 497.72%| unknown
 1390s|  3900 |  3229 |  3332k| 853.1 |   374M | 234 |3995 | 496 |8061 |1152k|  0 |  40 |   0 | 1.622384e+06 | 9.697350e+06 | 497.72%| unknown
 1487s|  4000 |  3327 |  3454k| 862.4 |   397M | 234 |3995 | 493 |  42k|1193k| 12 |  40 |   0 | 1.622384e+06 | 9.697350e+06 | 497.72%| unknown
 1588s|  4100 |  3409 |  3543k| 863.0 |   414M | 234 |3995 | 494 |6837 |1237k| 16 |  42 |   0 | 1.622384e+06 | 9.697350e+06 | 497.72%| unknown
 1630s|  4200 |  3495 |  3619k| 860.6 |   420M | 234 |3995 | 496 |5861 |1280k|  2 |  45 |   0 | 1.622384e+06 | 9.697350e+06 | 497.72%| unknown
 1697s|  4300 |  3591 |  3791k| 880.5 |   429M | 234 |3995 | 496 |  20k|1317k|  0 |  45 |   0 | 1.622384e+06 | 9.697350e+06 | 497.72%| unknown
 1774s|  4400 |  3659 |  4067k| 923.2 |   431M | 234 |3995 | 495 |9423 |1321k|  0 |  45 |   0 | 1.622384e+06 | 9.697350e+06 | 497.72%| unknown
 1815s|  4500 |  3741 |  4136k| 918.1 |   436M | 234 |3995 | 495 |  14k|1362k| 15 |  45 |   0 | 1.622384e+06 | 9.697350e+06 | 497.72%| unknown
 1865s|  4600 |  3825 |  4221k| 916.6 |   453M | 234 |3995 | 496 |  28k|1388k|  0 |  46 |   0 | 1.622384e+06 | 9.697350e+06 | 497.72%| unknown
 1938s|  4700 |  3909 |  4332k| 920.6 |   459M | 234 |3995 | 497 |  12k|1437k|  3 |  48 |   0 | 1.622384e+06 | 9.697350e+06 | 497.72%| unknown
 1974s|  4800 |  3981 |  4388k| 913.2 |   464M | 234 |3995 | 499 |  20k|1453k|  2 |  50 |   0 | 1.622384e+06 | 9.697350e+06 | 497.72%| unknown
 time | node  | left  |LP iter|LP it/n|mem/heur|mdpt |vars |cons |rows |cuts |sepa|confs|strbr|  dualbound   | primalbound  |  gap   | compl. 
 2044s|  4900 |  4039 |  4559k| 929.5 |   467M | 238 |3995 | 500 |  26k|1464k| 21 |  51 |   0 | 1.622384e+06 | 9.697350e+06 | 497.72%| unknown
 2098s|  5000 |  4125 |  4649k| 928.8 |   479M | 246 |3995 | 500 |  21k|1500k|  3 |  53 |   0 | 1.622384e+06 | 9.697350e+06 | 497.72%| unknown
 2136s|  5100 |  4219 |  4694k| 919.4 |   483M | 246 |3995 | 502 |7581 |1516k|  3 |  55 |   0 | 1.622384e+06 | 9.697350e+06 | 497.72%| unknown
 2192s|  5200 |  4297 |  4822k| 926.4 |   495M | 246 |3995 | 503 |9496 |1542k| 12 |  56 |   0 | 1.622384e+06 | 9.697350e+06 | 497.72%| unknown
 2239s|  5300 |  4377 |  4897k| 923.1 |   502M | 246 |3995 | 503 |  21k|1568k| 13 |  57 |   0 | 1.622384e+06 | 9.697350e+06 | 497.72%| unknown
 2344s|  5400 |  4469 |  4987k| 922.7 |   512M | 246 |3995 | 503 |  19k|1611k| 15 |  58 |   0 | 1.622384e+06 | 9.697350e+06 | 497.72%| unknown
 2406s|  5500 |  4561 |  5067k| 920.3 |   525M | 246 |3995 | 505 |7144 |1646k|  5 |  60 |   0 | 1.622384e+06 | 9.697350e+06 | 497.72%| unknown
 2493s|  5600 |  4647 |  5384k| 960.5 |   531M | 246 |3995 | 505 |6017 |1669k| 15 |  60 |   0 | 1.622384e+06 | 9.697350e+06 | 497.72%| unknown
 2541s|  5700 |  4739 |  5456k| 956.4 |   535M | 246 |3995 | 506 |6339 |1720k| 16 |  61 |   0 | 1.622384e+06 | 9.697350e+06 | 497.72%| unknown
 2579s|  5800 |  4821 |  5514k| 949.9 |   541M | 246 |3995 | 505 |  12k|1751k|  2 |  61 |   0 | 1.622384e+06 | 9.697350e+06 | 497.72%| unknown
 2635s|  5900 |  4909 |  5612k| 950.4 |   549M | 246 |3995 | 505 |6589 |1782k| 11 |  62 |   0 | 1.622384e+06 | 9.697350e+06 | 497.72%| unknown
 2673s|  6000 |  5007 |  5669k| 944.1 |   558M | 246 |3995 | 506 |  18k|1806k|  2 |  63 |   0 | 1.622384e+06 | 9.697350e+06 | 497.72%| unknown
 2720s|  6100 |  5097 |  5753k| 942.3 |   569M | 246 |3995 | 505 |  13k|1834k| 11 |  63 |   0 | 1.622384e+06 | 9.697350e+06 | 497.72%| unknown
 2774s|  6200 |  5193 |  5832k| 939.8 |   574M | 246 |3995 | 505 |  21k|1861k| 13 |  64 |   0 | 1.622384e+06 | 9.697350e+06 | 497.72%| unknown
 2809s|  6300 |  5275 |  5884k| 933.2 |   580M | 246 |3995 | 505 |6075 |1883k|  2 |  64 |   0 | 1.622384e+06 | 9.697350e+06 | 497.72%| unknown
 time | node  | left  |LP iter|LP it/n|mem/heur|mdpt |vars |cons |rows |cuts |sepa|confs|strbr|  dualbound   | primalbound  |  gap   | compl. 
 2843s|  6400 |  5359 |  5953k| 929.3 |   586M | 246 |3995 | 503 |  17k|1908k|  6 |  64 |   0 | 1.622384e+06 | 9.697350e+06 | 497.72%| unknown
 2882s|  6500 |  5459 |  6023k| 925.8 |   593M | 246 |3995 | 503 |  14k|1938k|  4 |  64 |   0 | 1.622384e+06 | 9.697350e+06 | 497.72%| unknown
 2917s|  6600 |  5555 |  6146k| 930.4 |   595M | 246 |3995 | 503 |8112 |1963k|  0 |  64 |   0 | 1.622384e+06 | 9.697350e+06 | 497.72%| unknown
 2952s|  6700 |  5655 |  6272k| 935.4 |   595M | 246 |3995 | 503 |  15k|1977k| 14 |  64 |   0 | 1.622384e+06 | 9.697350e+06 | 497.72%| unknown
 2996s|  6800 |  5743 |  6354k| 933.7 |   601M | 246 |3995 | 503 |  12k|2016k| 12 |  64 |   0 | 1.622384e+06 | 9.697350e+06 | 497.72%| unknown
 3085s|  6900 |  5807 |  6625k| 959.5 |   606M | 246 |3995 | 503 |  21k|2032k|  0 |  64 |   0 | 1.622384e+06 | 9.697350e+06 | 497.72%| unknown
 3169s|  7000 |  5895 |  6750k| 963.6 |   626M | 246 |3995 | 503 |  34k|2076k| 14 |  64 |   0 | 1.622384e+06 | 9.697350e+06 | 497.72%| unknown
 3225s|  7100 |  5975 |  6809k| 958.3 |   631M | 246 |3995 | 503 |7400 |2094k|  3 |  64 |   0 | 1.622384e+06 | 9.697350e+06 | 497.72%| unknown
 3280s|  7200 |  6069 |  6917k| 960.0 |   642M | 246 |3995 | 503 |  16k|2138k| 13 |  65 |   0 | 1.622384e+06 | 9.697350e+06 | 497.72%| unknown
 3320s|  7300 |  6143 |  6975k| 954.8 |   646M | 246 |3995 | 502 |  10k|2158k|  1 |  65 |   0 | 1.622384e+06 | 9.697350e+06 | 497.72%| unknown
 3411s|  7400 |  6223 |  7152k| 965.8 |   662M | 246 |3995 | 502 |7564 |2197k|  1 |  65 |   0 | 1.622384e+06 | 9.697350e+06 | 497.72%| unknown
 3482s|  7500 |  6313 |  7282k| 970.3 |   676M | 246 |3995 | 501 |  28k|2227k| 13 |  65 |   0 | 1.622384e+06 | 9.697350e+06 | 497.72%| unknown
 3532s|  7600 |  6407 |  7366k| 968.6 |   682M | 246 |3995 | 501 |6747 |2271k|  5 |  65 |   0 | 1.622384e+06 | 9.697350e+06 | 497.72%| unknown
 3579s|  7700 |  6501 |  7491k| 972.2 |   687M | 246 |3995 | 500 |8732 |2300k|  3 |  65 |   0 | 1.622384e+06 | 9.697350e+06 | 497.72%| unknown

SCIP Status        : solving was interrupted [time limit reached]
Solving Time (sec) : 3600.00
Solving Nodes      : 7761
Primal Bound       : +9.69735032241563e+06 (2 solutions)
Dual Bound         : +1.62238435200000e+06
Gap                : 497.72 %
time limit reached
*******************************************************************************

Constraints violation:


Sum of constraints violation: 3.8832517343309715e-12
*******************************************************************************

*******************************************************************************

Constraint 2 violations:


Sum of violation of original con2: 1.5987211554602254e-14
Sum of violation of approx con2: 1.4210854715202004e-14
*******************************************************************************

Absolute and relative violations between original and approximation constraint 2:


Con2 sum of absolute violation: 1.3806600281279457e-07
Con2 sum of relative violation: 0.118708859874778
*******************************************************************************

Total cost using scip: 9697350.322430747
scip solve time: 3601.92 seconds
*******************************************************************************

